

























































































47 36 15 
33 19 35 
30 34 21 
25 13 37 
58 27 11 
44 70 75 
28 45 57 18 
68 32 16 
39 54 65 
72 43 6 
24 23 64 
52 3 9 
26 74 46 
73 42 49 
63 17 41 
50 38 4 10 
7 29 14 
51 53 2 
20 60 76 
5 71 61 
40 56 8 
48 12 66 
62 31 59 
55 0 1 
69 22 67 
